nK = 1042;
nT = 6;
nI = 14;
L = 35;
TT = 249;
np = 1;
nc = 3;
b = [65, 32, 32, 35, 21, 45, 46, 60, 29, 44, 70, 47, 61, 41];
d = [140, 127, 51, 141, 101, 100, 142, 106, 75, 119, 149, 73, 102, 111];
m = [2.3, 1.7, 1.7, 2, 1.8, 1, 1.5, 1.7, 1.7, 2.1, 2.5, 2.2, 1.6, 1.8];
pt = [0.31, 0.32, 0.3, 0.26, 0.23, 0.31];
st = [12.71, 18.88, 16.5, 11.7, 9.43, 13.33];
arc = {<1, 0, 1, 1, 0, 0, 0, [1, 1, 1, 1, 1, 1]>, <2, 1, 2, 1, 0, 0, 0, [1, 1, 1, 1, 1, 1]>, <3, 2, 3, 1, 0, 0, 0, [1, 1, 1, 1, 1, 1]>, <4, 3, 4, 1, 0, 0, 0, [1, 1, 1, 1, 1, 1]>, <5, 4, 5, 1, 0, 0, 0, [1, 1, 1, 1, 1, 1]>, <6, 5, 6, 1, 0, 0, 0, [1, 1, 1, 1, 1, 1]>, <7, 6, 7, 1, 0, 0, 0, [1, 1, 1, 1, 1, 1]>, <8, 7, 8, 1, 0, 0, 0, [1, 1, 1, 1, 1, 1]>, <9, 8, 9, 1, 0, 0, 0, [1, 1, 1, 1, 1, 1]>, <10, 9, 10, 1, 0, 0, 0, [1, 1, 1, 1, 1, 1]>, <11, 10, 11, 1, 0, 0, 0, [1, 1, 1, 1, 1, 1]>, <12, 11, 12, 1, 0, 0, 0, [1, 1, 1, 1, 1, 1]>, <13, 12, 13, 1, 0, 0, 0, [1, 1, 1, 1, 1, 1]>, <14, 13, 14, 1, 0, 0, 0, [1, 1, 1, 1, 1, 1]>, <15, 14, 15, 1, 0, 0, 0, [1, 1, 1, 1, 1, 1]>, <16, 15, 16, 1, 0, 0, 0, [1, 1, 1, 1, 1, 1]>, <17, 16, 17, 1, 0, 0, 0, [1, 1, 1, 1, 1, 1]>, <18, 17, 18, 1, 0, 0, 0, [1, 1, 1, 1, 1, 1]>, <19, 18, 19, 1, 0, 0, 0, [1, 1, 1, 1, 1, 1]>, <20, 19, 20, 1, 0, 0, 0, [1, 1, 1, 1, 1, 1]>, <21, 20, 21, 1, 0, 0, 0, [1, 1, 1, 1, 1, 1]>, <22, 21, 22, 1, 0, 0, 0, [1, 1, 1, 1, 1, 1]>, <23, 22, 23, 1, 0, 0, 0, [1, 1, 1, 1, 1, 1]>, <24, 23, 24, 1, 0, 0, 0, [1, 1, 1, 1, 1, 1]>, <25, 24, 25, 1, 0, 0, 0, [1, 1, 1, 1, 1, 1]>, <26, 25, 26, 1, 0, 0, 0, [1, 1, 1, 1, 1, 1]>, <27, 26, 27, 1, 0, 0, 0, [1, 1, 1, 1, 1, 1]>, <28, 27, 28, 1, 0, 0, 0, [1, 1, 1, 1, 1, 1]>, <29, 28, 29, 1, 0, 0, 0, [1, 1, 1, 1, 1, 1]>, <30, 29, 30, 1, 0, 0, 0, [1, 1, 1, 1, 1, 1]>, <31, 30, 31, 1, 0, 0, 0, [1, 1, 1, 1, 1, 1]>, <32, 31, 32, 1, 0, 0, 0, [1, 1, 1, 1, 1, 1]>, <33, 32, 33, 1, 0, 0, 0, [1, 1, 1, 1, 1, 1]>, <34, 33, 34, 1, 0, 0, 0, [1, 1, 1, 1, 1, 1]>, <35, 34, 35, 1, 0, 0, 0, [1, 1, 1, 1, 1, 1]>, <36, 5, 16, 11, 1, 0, 1, [1, 0, 0, 1, 1, 1]>, <37, 6, 17, 11, 1, 0, 1, [1, 0, 0, 1, 1, 1]>, <38, 14, 25, 11, 1, 0, 1, [1, 0, 0, 1, 1, 1]>, <39, 15, 26, 11, 1, 0, 1, [1, 0, 0, 1, 1, 1]>, <40, 20, 31, 11, 1, 0, 1, [1, 0, 0, 1, 1, 1]>, <41, 21, 32, 11, 1, 0, 1, [1, 0, 0, 1, 1, 1]>, <42, 22, 33, 11, 1, 0, 1, [1, 0, 0, 1, 1, 1]>, <43, 23, 34, 11, 1, 0, 1, [1, 0, 0, 1, 1, 1]>, <44, 24, 35, 11, 1, 0, 1, [1, 0, 0, 1, 1, 1]>, <45, 5, 16, 11, 2, 0, 1, [1, 0, 0, 1, 1, 1]>, <46, 6, 17, 11, 2, 0, 1, [1, 0, 0, 1, 1, 1]>, <47, 14, 25, 11, 2, 0, 1, [1, 0, 0, 1, 1, 1]>, <48, 15, 26, 11, 2, 0, 1, [1, 0, 0, 1, 1, 1]>, <49, 20, 31, 11, 2, 0, 1, [1, 0, 0, 1, 1, 1]>, <50, 21, 32, 11, 2, 0, 1, [1, 0, 0, 1, 1, 1]>, <51, 22, 33, 11, 2, 0, 1, [1, 0, 0, 1, 1, 1]>, <52, 23, 34, 11, 2, 0, 1, [1, 0, 0, 1, 1, 1]>, <53, 24, 35, 11, 2, 0, 1, [1, 0, 0, 1, 1, 1]>, <54, 2, 17, 15, 3, 0, 0, [1, 1, 0, 0, 1, 1]>, <55, 3, 18, 15, 3, 0, 0, [1, 1, 0, 0, 1, 1]>, <56, 4, 19, 15, 3, 0, 0, [1, 1, 0, 0, 1, 1]>, <57, 5, 20, 15, 3, 0, 0, [1, 1, 0, 0, 1, 1]>, <58, 6, 21, 15, 3, 0, 0, [1, 1, 0, 0, 1, 1]>, <59, 11, 26, 15, 3, 0, 0, [1, 1, 0, 0, 1, 1]>, <60, 12, 27, 15, 3, 0, 0, [1, 1, 0, 0, 1, 1]>, <61, 13, 28, 15, 3, 0, 0, [1, 1, 0, 0, 1, 1]>, <62, 14, 29, 15, 3, 0, 0, [1, 1, 0, 0, 1, 1]>, <63, 15, 30, 15, 3, 0, 0, [1, 1, 0, 0, 1, 1]>, <64, 16, 31, 15, 3, 0, 0, [1, 1, 0, 0, 1, 1]>, <65, 17, 32, 15, 3, 0, 0, [1, 1, 0, 0, 1, 1]>, <66, 18, 33, 15, 3, 0, 0, [1, 1, 0, 0, 1, 1]>, <67, 19, 34, 15, 3, 0, 0, [1, 1, 0, 0, 1, 1]>, <68, 20, 35, 15, 3, 0, 0, [1, 1, 0, 0, 1, 1]>, <69, 3, 17, 14, 4, 0, 1, [1, 1, 1, 1, 0, 0]>, <70, 4, 18, 14, 4, 0, 1, [1, 1, 1, 1, 0, 0]>, <71, 5, 19, 14, 4, 0, 1, [1, 1, 1, 1, 0, 0]>, <72, 6, 20, 14, 4, 0, 1, [1, 1, 1, 1, 0, 0]>, <73, 12, 26, 14, 4, 0, 1, [1, 1, 1, 1, 0, 0]>, <74, 13, 27, 14, 4, 0, 1, [1, 1, 1, 1, 0, 0]>, <75, 14, 28, 14, 4, 0, 1, [1, 1, 1, 1, 0, 0]>, <76, 15, 29, 14, 4, 0, 1, [1, 1, 1, 1, 0, 0]>, <77, 17, 31, 14, 4, 0, 1, [1, 1, 1, 1, 0, 0]>, <78, 18, 32, 14, 4, 0, 1, [1, 1, 1, 1, 0, 0]>, <79, 19, 33, 14, 4, 0, 1, [1, 1, 1, 1, 0, 0]>, <80, 20, 34, 14, 4, 0, 1, [1, 1, 1, 1, 0, 0]>, <81, 21, 35, 14, 4, 0, 1, [1, 1, 1, 1, 0, 0]>, <82, 3, 17, 14, 5, 0, 0, [1, 1, 1, 0, 0, 1]>, <83, 4, 18, 14, 5, 0, 0, [1, 1, 1, 0, 0, 1]>, <84, 5, 19, 14, 5, 0, 0, [1, 1, 1, 0, 0, 1]>, <85, 6, 20, 14, 5, 0, 0, [1, 1, 1, 0, 0, 1]>, <86, 12, 26, 14, 5, 0, 0, [1, 1, 1, 0, 0, 1]>, <87, 13, 27, 14, 5, 0, 0, [1, 1, 1, 0, 0, 1]>, <88, 14, 28, 14, 5, 0, 0, [1, 1, 1, 0, 0, 1]>, <89, 15, 29, 14, 5, 0, 0, [1, 1, 1, 0, 0, 1]>, <90, 17, 31, 14, 5, 0, 0, [1, 1, 1, 0, 0, 1]>, <91, 18, 32, 14, 5, 0, 0, [1, 1, 1, 0, 0, 1]>, <92, 19, 33, 14, 5, 0, 0, [1, 1, 1, 0, 0, 1]>, <93, 20, 34, 14, 5, 0, 0, [1, 1, 1, 0, 0, 1]>, <94, 21, 35, 14, 5, 0, 0, [1, 1, 1, 0, 0, 1]>, <95, 5, 17, 12, 6, 0, 0, [1, 1, 1, 0, 0, 1]>, <96, 6, 18, 12, 6, 0, 0, [1, 1, 1, 0, 0, 1]>, <97, 14, 26, 12, 6, 0, 0, [1, 1, 1, 0, 0, 1]>, <98, 15, 27, 12, 6, 0, 0, [1, 1, 1, 0, 0, 1]>, <99, 19, 31, 12, 6, 0, 0, [1, 1, 1, 0, 0, 1]>, <100, 20, 32, 12, 6, 0, 0, [1, 1, 1, 0, 0, 1]>, <101, 21, 33, 12, 6, 0, 0, [1, 1, 1, 0, 0, 1]>, <102, 22, 34, 12, 6, 0, 0, [1, 1, 1, 0, 0, 1]>, <103, 23, 35, 12, 6, 0, 0, [1, 1, 1, 0, 0, 1]>, <104, 5, 17, 12, 7, 0, 1, [0, 0, 1, 1, 1, 1]>, <105, 6, 18, 12, 7, 0, 1, [0, 0, 1, 1, 1, 1]>, <106, 14, 26, 12, 7, 0, 1, [0, 0, 1, 1, 1, 1]>, <107, 15, 27, 12, 7, 0, 1, [0, 0, 1, 1, 1, 1]>, <108, 19, 31, 12, 7, 0, 1, [0, 0, 1, 1, 1, 1]>, <109, 20, 32, 12, 7, 0, 1, [0, 0, 1, 1, 1, 1]>, <110, 21, 33, 12, 7, 0, 1, [0, 0, 1, 1, 1, 1]>, <111, 22, 34, 12, 7, 0, 1, [0, 0, 1, 1, 1, 1]>, <112, 23, 35, 12, 7, 0, 1, [0, 0, 1, 1, 1, 1]>, <113, 4, 17, 13, 8, 0, 1, [1, 1, 0, 0, 1, 1]>, <114, 5, 18, 13, 8, 0, 1, [1, 1, 0, 0, 1, 1]>, <115, 6, 19, 13, 8, 0, 1, [1, 1, 0, 0, 1, 1]>, <116, 13, 26, 13, 8, 0, 1, [1, 1, 0, 0, 1, 1]>, <117, 14, 27, 13, 8, 0, 1, [1, 1, 0, 0, 1, 1]>, <118, 15, 28, 13, 8, 0, 1, [1, 1, 0, 0, 1, 1]>, <119, 18, 31, 13, 8, 0, 1, [1, 1, 0, 0, 1, 1]>, <120, 19, 32, 13, 8, 0, 1, [1, 1, 0, 0, 1, 1]>, <121, 20, 33, 13, 8, 0, 1, [1, 1, 0, 0, 1, 1]>, <122, 21, 34, 13, 8, 0, 1, [1, 1, 0, 0, 1, 1]>, <123, 22, 35, 13, 8, 0, 1, [1, 1, 0, 0, 1, 1]>, <124, 4, 17, 13, 9, 0, 0, [0, 0, 1, 1, 1, 1]>, <125, 5, 18, 13, 9, 0, 0, [0, 0, 1, 1, 1, 1]>, <126, 6, 19, 13, 9, 0, 0, [0, 0, 1, 1, 1, 1]>, <127, 13, 26, 13, 9, 0, 0, [0, 0, 1, 1, 1, 1]>, <128, 14, 27, 13, 9, 0, 0, [0, 0, 1, 1, 1, 1]>, <129, 15, 28, 13, 9, 0, 0, [0, 0, 1, 1, 1, 1]>, <130, 18, 31, 13, 9, 0, 0, [0, 0, 1, 1, 1, 1]>, <131, 19, 32, 13, 9, 0, 0, [0, 0, 1, 1, 1, 1]>, <132, 20, 33, 13, 9, 0, 0, [0, 0, 1, 1, 1, 1]>, <133, 21, 34, 13, 9, 0, 0, [0, 0, 1, 1, 1, 1]>, <134, 22, 35, 13, 9, 0, 0, [0, 0, 1, 1, 1, 1]>, <135, 5, 16, 11, 10, 0, 1, [0, 0, 1, 1, 1, 1]>, <136, 6, 17, 11, 10, 0, 1, [0, 0, 1, 1, 1, 1]>, <137, 14, 25, 11, 10, 0, 1, [0, 0, 1, 1, 1, 1]>, <138, 15, 26, 11, 10, 0, 1, [0, 0, 1, 1, 1, 1]>, <139, 20, 31, 11, 10, 0, 1, [0, 0, 1, 1, 1, 1]>, <140, 21, 32, 11, 10, 0, 1, [0, 0, 1, 1, 1, 1]>, <141, 22, 33, 11, 10, 0, 1, [0, 0, 1, 1, 1, 1]>, <142, 23, 34, 11, 10, 0, 1, [0, 0, 1, 1, 1, 1]>, <143, 24, 35, 11, 10, 0, 1, [0, 0, 1, 1, 1, 1]>, <144, 4, 17, 13, 11, 0, 1, [0, 0, 1, 1, 1, 1]>, <145, 5, 18, 13, 11, 0, 1, [0, 0, 1, 1, 1, 1]>, <146, 6, 19, 13, 11, 0, 1, [0, 0, 1, 1, 1, 1]>, <147, 13, 26, 13, 11, 0, 1, [0, 0, 1, 1, 1, 1]>, <148, 14, 27, 13, 11, 0, 1, [0, 0, 1, 1, 1, 1]>, <149, 15, 28, 13, 11, 0, 1, [0, 0, 1, 1, 1, 1]>, <150, 18, 31, 13, 11, 0, 1, [0, 0, 1, 1, 1, 1]>, <151, 19, 32, 13, 11, 0, 1, [0, 0, 1, 1, 1, 1]>, <152, 20, 33, 13, 11, 0, 1, [0, 0, 1, 1, 1, 1]>, <153, 21, 34, 13, 11, 0, 1, [0, 0, 1, 1, 1, 1]>, <154, 22, 35, 13, 11, 0, 1, [0, 0, 1, 1, 1, 1]>, <155, 5, 17, 12, 12, 0, 0, [0, 0, 1, 1, 1, 1]>, <156, 6, 18, 12, 12, 0, 0, [0, 0, 1, 1, 1, 1]>, <157, 14, 26, 12, 12, 0, 0, [0, 0, 1, 1, 1, 1]>, <158, 15, 27, 12, 12, 0, 0, [0, 0, 1, 1, 1, 1]>, <159, 19, 31, 12, 12, 0, 0, [0, 0, 1, 1, 1, 1]>, <160, 20, 32, 12, 12, 0, 0, [0, 0, 1, 1, 1, 1]>, <161, 21, 33, 12, 12, 0, 0, [0, 0, 1, 1, 1, 1]>, <162, 22, 34, 12, 12, 0, 0, [0, 0, 1, 1, 1, 1]>, <163, 23, 35, 12, 12, 0, 0, [0, 0, 1, 1, 1, 1]>, <164, 5, 17, 12, 13, 0, 1, [0, 0, 1, 1, 1, 1]>, <165, 6, 18, 12, 13, 0, 1, [0, 0, 1, 1, 1, 1]>, <166, 14, 26, 12, 13, 0, 1, [0, 0, 1, 1, 1, 1]>, <167, 15, 27, 12, 13, 0, 1, [0, 0, 1, 1, 1, 1]>, <168, 19, 31, 12, 13, 0, 1, [0, 0, 1, 1, 1, 1]>, <169, 20, 32, 12, 13, 0, 1, [0, 0, 1, 1, 1, 1]>, <170, 21, 33, 12, 13, 0, 1, [0, 0, 1, 1, 1, 1]>, <171, 22, 34, 12, 13, 0, 1, [0, 0, 1, 1, 1, 1]>, <172, 23, 35, 12, 13, 0, 1, [0, 0, 1, 1, 1, 1]>, <173, 5, 17, 12, 14, 0, 1, [0, 0, 1, 1, 1, 1]>, <174, 6, 18, 12, 14, 0, 1, [0, 0, 1, 1, 1, 1]>, <175, 14, 26, 12, 14, 0, 1, [0, 0, 1, 1, 1, 1]>, <176, 15, 27, 12, 14, 0, 1, [0, 0, 1, 1, 1, 1]>, <177, 19, 31, 12, 14, 0, 1, [0, 0, 1, 1, 1, 1]>, <178, 20, 32, 12, 14, 0, 1, [0, 0, 1, 1, 1, 1]>, <179, 21, 33, 12, 14, 0, 1, [0, 0, 1, 1, 1, 1]>, <180, 22, 34, 12, 14, 0, 1, [0, 0, 1, 1, 1, 1]>, <181, 23, 35, 12, 14, 0, 1, [0, 0, 1, 1, 1, 1]>};
